tsp_instances/TSP50/instance114.tsp
NODE_COORD_SECTION
0 1 182
1 56 109
2 140 18
3 183 143
4 182 164
5 146 25
6 40 84
7 87 85
8 16 89
9 28 195
10 178 17
11 170 108
12 105 125
13 81 137
14 108 79
15 106 69
16 121 77
17 60 174
18 29 63
19 43 103
20 31 132
21 124 59
22 65 142
23 102 107
24 46 58
25 90 184
26 30 108
27 80 195
28 157 26
29 80 55
30 42 173
31 111 48
32 39 121
33 131 164
34 146 155
35 44 87
36 172 155
37 37 36
38 43 158
39 30 109
40 180 186
41 18 9
42 158 84
43 15 188
44 140 63
45 120 88
46 50 133
47 183 74
48 110 80
49 186 131
