tsp_instances/TSP50/instance114.opt.tour
TOUR_SECTION
1
39
21
33
40
27
9
19
42
38
25
7
36
20
2
47
23
14
13
24
8
30
16
15
49
46
17
45
22
32
3
6
29
11
48
43
12
50
4
37
5
41
35
34
26
28
18
31
10
44
-1